12 48 3 10
1 6 9 15 16 17 17 14 19 1 10 10 17 3 17 19 5 15 7 9 5 15 19 9 20 8 14 6 9 18 15 2 3 15 8 9 16 18 3 20 16 4 1 17 3 9 5 11 
1.46 0.51 8.49 15.34 8.52 13.63 0.6 2.74 4.94 0.25 7.42 7.37 13.78 5.3 12.86 15.96 11.06 15.22 15.42 7.82 11.27 9.06 3.63 1.61 10.8 8.65 4.54 6.93 10.73 10.08 7.24 11.21 5.12 5.59 1.76 3.04 9.27 15.82 15.74 4.88 15.14 13.64 15.16 4.38 7.08 13.95 13.63 9.42 
13.02 0.48 0.5 3.27 7.58 4.86 6.91 8.19 2.65 7.8 12.56 12.23 8.12 13.69 4.47 13.01 12.38 6.85 2 5.5 0.38 2.31 2.65 11.15 14.38 2.86 3.78 1.45 12.5 0.81 4.86 6.2 10.96 14 14.69 4.21 2.8 12.45 13.66 12.01 9.75 15.67 13.92 5.59 7.78 9.82 9.44 3 
1.79 9.7 10.18 10.06 6.06 6.85 9.46 8.54 7.04 2.95 5.7 3.62 5.06 4.19 11.86 5.5 9.39 6.01 4.07 6.89 12.33 5.34 10.37 13.25 10.66 5.33 6.63 7.45 4.3 12.81 11.24 10.79 13.96 5.7 2.46 5.28 14.01 0.99 11.42 5.38 13.68 6.37 12.4 10.7 2.97 12.27 5.99 12.71 
8 8 8 8 8 8 8 8 8 8 8 8 8 8 8 8 8 8 8 8 8 8 8 8 8 8 8 8 8 8 8 8 8 8 8 8 8 8 8 8 8 8 8 8 8 8 8 8 
2.24 0.1 8.98 4.99 3.48 1.21 10.86 4.12 1.62 7.63 12.62 9.33 5.65 10.48 14.28 11.15 10.66 10.12 2.05 10.32 13.03 5.68 8.95 0.3 5.7 1.59 9.3 0.44 11.92 11.2 13.5 5.87 7.56 2.83 3.94 9 12 6 4.74 13.09 7.84 9.87 14.16 15.93 9.11 9.25 2.78 15.03 
10.24 6.76 6.29 6.09 14.95 12.44 5.16 3.32 13.53 12.51 4.02 15.01 4.98 0.17 13.02 1.05 9.76 5.91 14.05 5.05 15.9 7.77 5.43 12.72 5.96 3.57 8.76 12.05 12.68 2.82 5.55 13.96 1.68 1.39 11.41 0.24 12.89 9.45 9.11 1.64 15.99 2.36 9.72 2.95 11.19 8.23 5.53 11.71 
11.88 14.87 5.31 9.47 11.17 15.01 3.82 0.79 4.82 1.71 4.55 3.72 10.37 9.35 14.61 11.39 13.96 7.62 6.89 10.49 14.09 1.99 13.68 14.63 12.03 8.47 0.4 2.3 4.59 1.57 12.86 9.48 15.63 5.4 5.44 13.37 9.25 15.65 2.37 12.23 3.75 3.02 2.19 13.84 13.37 5.83 1.44 2.75 
10.3 4.76 3.5 10.49 6.13 3.49 10.97 1.11 7.85 2.93 0.07 11.65 13.36 3.53 12.09 9.11 8.43 2.86 0.93 11.22 6.73 12.03 7.18 11.11 3.4 7.88 10.8 15.09 2.95 3.33 10.33 6.86 2.49 6.51 6.42 5.33 10.8 7.79 15.8 5.76 9.97 14.84 1 14.66 0.29 8.8 9.7 3.69 
0.84 0.55 14.16 7.79 10.23 5.61 6.36 8.85 10.74 11.85 5.7 7.43 12.86 2.33 8.66 3.45 4.48 4.16 14.46 10.11 2.83 10.16 15.72 8.48 15.58 5.75 2.65 4.44 14.42 6.68 11.65 5.83 15.07 8.88 11.21 12.9 12.45 0.32 8.73 13.61 7.81 8.39 12.45 15.56 13.53 11.91 4.41 2.55 
5.72 10.02 10.06 10.78 14.08 13.71 2.27 14.57 3.9 8.23 2.35 13.91 8.64 9.59 3.97 6.62 5.56 11.41 15.24 3.2 5.13 1.3 14.92 9.92 6.37 6.63 10.27 0.15 14.58 6.03 3.9 0.57 7.86 15.34 12.35 6.06 4.46 15.43 10.16 14.39 2.63 12.7 1 1.75 6.56 9.5 14.35 2.05 
4.13 1.67 6.31 1.2 12.05 1.99 7.22 8.79 14.96 7.27 4.95 10.89 1.43 0.02 12.04 3.88 15.37 5.4 3.12 1.61 9.84 15.49 11.18 15.45 3.44 5.69 11.95 9.1 13.07 1.68 14.15 3.02 9.19 4.55 6.89 0.78 13.85 1.73 9.46 12.08 6.75 11.48 7.03 7.14 7.3 7.31 12.99 14.29 
1.59 4.31 10.5 3.29 7.21 0.28 8.44 4.67 14.44 12.12 9.03 8.71 8.69 6.84 8.8 11.21 15.74 9.71 2.09 3.01 9.52 12.73 5.05 15.72 13.91 12.38 14.87 14.15 12.92 15.07 6.91 9.01 12.95 0.66 1 4.62 3.12 0.36 9.91 12.97 7.76 2.17 1.95 5.46 15.58 13.63 14.09 0.81 
1 1 1 1 1 1 1 1 1 1 1 1 1 1 1 1 1 1 1 1 1 1 1 1 1 1 1 1 1 1 1 1 1 1 1 1 1 1 1 1 1 1 1 1 1 1 1 1 
1 1 1 1 1 1 1 1 1 1 1 1 1 1 1 1 1 1 1 1 1 1 1 1 1 1 1 1 1 1 1 1 1 1 1 1 1 1 1 1 1 1 1 1 1 1 1 1 
1 1 1 1 1 1 1 1 1 1 1 1 1 1 1 1 1 1 1 1 1 1 1 1 1 1 1 1 1 1 1 1 1 1 1 1 1 1 1 1 1 1 1 1 1 1 1 1 
1 1 1 1 1 1 1 1 1 1 1 1 1 1 1 1 1 1 1 1 1 1 1 1 1 1 1 1 1 1 1 1 1 1 1 1 1 1 1 1 1 1 1 1 1 1 1 1 
1 1 1 1 1 1 1 1 1 1 1 1 1 1 1 1 1 1 1 1 1 1 1 1 1 1 1 1 1 1 1 1 1 1 1 1 1 1 1 1 1 1 1 1 1 1 1 1 
1 1 1 1 1 1 1 1 1 1 1 1 1 1 1 1 1 1 1 1 1 1 1 1 1 1 1 1 1 1 1 1 1 1 1 1 1 1 1 1 1 1 1 1 1 1 1 1 
1 1 1 1 1 1 1 1 1 1 1 1 1 1 1 1 1 1 1 1 1 1 1 1 1 1 1 1 1 1 1 1 1 1 1 1 1 1 1 1 1 1 1 1 1 1 1 1 
1 1 1 1 1 1 1 1 1 1 1 1 1 1 1 1 1 1 1 1 1 1 1 1 1 1 1 1 1 1 1 1 1 1 1 1 1 1 1 1 1 1 1 1 1 1 1 1 
1 1 1 1 1 1 1 1 1 1 1 1 1 1 1 1 1 1 1 1 1 1 1 1 1 1 1 1 1 1 1 1 1 1 1 1 1 1 1 1 1 1 1 1 1 1 1 1 
1 1 1 1 1 1 1 1 1 1 1 1 1 1 1 1 1 1 1 1 1 1 1 1 1 1 1 1 1 1 1 1 1 1 1 1 1 1 1 1 1 1 1 1 1 1 1 1 
1 1 1 1 1 1 1 1 1 1 1 1 1 1 1 1 1 1 1 1 1 1 1 1 1 1 1 1 1 1 1 1 1 1 1 1 1 1 1 1 1 1 1 1 1 1 1 1 
1 1 1 1 1 1 1 1 1 1 1 1 1 1 1 1 1 1 1 1 1 1 1 1 1 1 1 1 1 1 1 1 1 1 1 1 1 1 1 1 1 1 1 1 1 1 1 1 
0.01 0.01 0.01 0.01 0.01 0.01 0.01 0.01 0.01 0.01 0.01 0.01 0.01 0.01 0.01 0.01 0.01 0.01 0.01 0.01 0.01 0.01 0.01 0.01 0.01 0.01 0.01 0.01 0.01 0.01 0.01 0.01 0.01 0.01 0.01 0.01 0.01 0.01 0.01 0.01 0.01 0.01 0.01 0.01 0.01 0.01 0.01 0.01 
0.02 0.02 0.02 0.02 0.02 0.02 0.02 0.02 0.02 0.02 0.02 0.02 0.02 0.02 0.02 0.02 0.02 0.02 0.02 0.02 0.02 0.02 0.02 0.02 0.02 0.02 0.02 0.02 0.02 0.02 0.02 0.02 0.02 0.02 0.02 0.02 0.02 0.02 0.02 0.02 0.02 0.02 0.02 0.02 0.02 0.02 0.02 0.02 
0.03 0.03 0.03 0.03 0.03 0.03 0.03 0.03 0.03 0.03 0.03 0.03 0.03 0.03 0.03 0.03 0.03 0.03 0.03 0.03 0.03 0.03 0.03 0.03 0.03 0.03 0.03 0.03 0.03 0.03 0.03 0.03 0.03 0.03 0.03 0.03 0.03 0.03 0.03 0.03 0.03 0.03 0.03 0.03 0.03 0.03 0.03 0.03 
0.04 0.04 0.04 0.04 0.04 0.04 0.04 0.04 0.04 0.04 0.04 0.04 0.04 0.04 0.04 0.04 0.04 0.04 0.04 0.04 0.04 0.04 0.04 0.04 0.04 0.04 0.04 0.04 0.04 0.04 0.04 0.04 0.04 0.04 0.04 0.04 0.04 0.04 0.04 0.04 0.04 0.04 0.04 0.04 0.04 0.04 0.04 0.04 
0.125 0.125 0.125 0.125 0.125 0.125 0.125 0.125 0.125 0.125 0.125 0.125 0.125 0.125 0.125 0.125 0.125 0.125 0.125 0.125 0.125 0.125 0.125 0.125 0.125 0.125 0.125 0.125 0.125 0.125 0.125 0.125 0.125 0.125 0.125 0.125 0.125 0.125 0.125 0.125 0.125 0.125 0.125 0.125 0.125 0.125 0.125 0.125 
0.25 0.25 0.25 0.25 0.25 0.25 0.25 0.25 0.25 0.25 0.25 0.25 0.25 0.25 0.25 0.25 0.25 0.25 0.25 0.25 0.25 0.25 0.25 0.25 0.25 0.25 0.25 0.25 0.25 0.25 0.25 0.25 0.25 0.25 0.25 0.25 0.25 0.25 0.25 0.25 0.25 0.25 0.25 0.25 0.25 0.25 0.25 0.25 
0.375 0.375 0.375 0.375 0.375 0.375 0.375 0.375 0.375 0.375 0.375 0.375 0.375 0.375 0.375 0.375 0.375 0.375 0.375 0.375 0.375 0.375 0.375 0.375 0.375 0.375 0.375 0.375 0.375 0.375 0.375 0.375 0.375 0.375 0.375 0.375 0.375 0.375 0.375 0.375 0.375 0.375 0.375 0.375 0.375 0.375 0.375 0.375 
0.5 0.5 0.5 0.5 0.5 0.5 0.5 0.5 0.5 0.5 0.5 0.5 0.5 0.5 0.5 0.5 0.5 0.5 0.5 0.5 0.5 0.5 0.5 0.5 0.5 0.5 0.5 0.5 0.5 0.5 0.5 0.5 0.5 0.5 0.5 0.5 0.5 0.5 0.5 0.5 0.5 0.5 0.5 0.5 0.5 0.5 0.5 0.5 
0.625 0.625 0.625 0.625 0.625 0.625 0.625 0.625 0.625 0.625 0.625 0.625 0.625 0.625 0.625 0.625 0.625 0.625 0.625 0.625 0.625 0.625 0.625 0.625 0.625 0.625 0.625 0.625 0.625 0.625 0.625 0.625 0.625 0.625 0.625 0.625 0.625 0.625 0.625 0.625 0.625 0.625 0.625 0.625 0.625 0.625 0.625 0.625 
0.75 0.75 0.75 0.75 0.75 0.75 0.75 0.75 0.75 0.75 0.75 0.75 0.75 0.75 0.75 0.75 0.75 0.75 0.75 0.75 0.75 0.75 0.75 0.75 0.75 0.75 0.75 0.75 0.75 0.75 0.75 0.75 0.75 0.75 0.75 0.75 0.75 0.75 0.75 0.75 0.75 0.75 0.75 0.75 0.75 0.75 0.75 0.75 
0.875 0.875 0.875 0.875 0.875 0.875 0.875 0.875 0.875 0.875 0.875 0.875 0.875 0.875 0.875 0.875 0.875 0.875 0.875 0.875 0.875 0.875 0.875 0.875 0.875 0.875 0.875 0.875 0.875 0.875 0.875 0.875 0.875 0.875 0.875 0.875 0.875 0.875 0.875 0.875 0.875 0.875 0.875 0.875 0.875 0.875 0.875 0.875 
1 1 1 1 1 1 1 1 1 1 1 1 1 1 1 1 1 1 1 1 1 1 1 1 1 1 1 1 1 1 1 1 1 1 1 1 1 1 1 1 1 1 1 1 1 1 1 1 
